Route #1: 77 23 44 26 11 64 40 53
Route #2: 10 68 18 25 42 16 66 60 6
Route #3: 41 14 36 59 35 55 33 4 19 9
Route #4: 28 74 48 13 39 61 50
Route #5: 62 3 54 20 31 73 76
Route #6: 57 7 32 29 70 37 30
Route #7: 2 63 5 49 27 47
Route #8: 65 75 51 45 46 34 12
Route #9: 15 71 22 8 56 67 69 43 21
Route #10: 1 24 52 58 38 72 17
Cost 1282